;; ===================== PROJECTED CANON (QE) =====================
;; Each clause below is entailed by Proj = ∃W.F over the canonical vocabulary.
;; Units appear first for clarity; OR-clauses (SAT-filtered) follow.
;; ==================================================================

;; Additional OR-clauses (SAT-filtered)
(assert (or patient_has_finding_of_acute_st_segment_elevation_myocardial_infarction_now patient_has_finding_of_acute_non_st_segment_elevation_myocardial_infarction_now))
